(set-logic HORN)
(declare-fun state (Int Int (Array Int Int) Int Int Bool Bool Bool Bool Int) Bool)
(assert (forall ((|E_17| Int) (|.y.10| Int) (|F_17| (Array Int Int)) (|D_17| Int) (|A_18| Int) (|.loc.11| Bool) (|.loc.12| Bool) (|.loc.13| Bool) (|.loc.14| Bool) (|G_17| Int) (|.loc.22| Bool) (|.loc.23| Bool) (|.loc.21| Bool) (|.loc.20| Bool) (|.y.19| Int) (|.y.18| Int) (|.y.15| Int) (|.y.17| (Array Int Int)) (|.y.16| Int) (|.xtv.1| Int)) (=> (and (and (and (not .loc.11) (not .loc.12)) (not .loc.13)) (not .loc.14)) (state |E_17| |.y.10| |F_17| |D_17| |A_18| |.loc.11| |.loc.12| |.loc.13| |.loc.14| |G_17|))))
(assert (forall ((|E_17| Int) (|.y.10| Int) (|F_17| (Array Int Int)) (|D_17| Int) (|A_18| Int) (|.loc.11| Bool) (|.loc.12| Bool) (|.loc.13| Bool) (|.loc.14| Bool) (|G_17| Int) (|.loc.22| Bool) (|.loc.23| Bool) (|.loc.21| Bool) (|.loc.20| Bool) (|.y.19| Int) (|.y.18| Int) (|.y.15| Int) (|.y.17| (Array Int Int)) (|.y.16| Int) (|.xtv.1| Int)) (=> (and (state |E_17| |.y.10| |F_17| |D_17| |A_18| |.loc.11| |.loc.12| |.loc.13| |.loc.14| |G_17|) (let ((.def_20 (not .loc.11))) (let ((.def_21 (not .loc.12))) (let ((.def_23 (not .loc.13))) (let ((.def_25 (not .loc.14))) (let ((.def_28 (not .loc.22))) (let ((.def_35 (= (select F_17 G_17) 49))) (let ((.def_46 (<= E_17 0))) (let ((.def_47 (not .def_46))) (let ((.def_52 (or .def_46 (not (<= G_17 0))))) (let ((.def_53 (and (and (not (<= A_18 D_17)) (and (= (+ E_17 (+ D_17 (* (- 1) G_17))) 0) .def_47)) .def_52))) (let ((.def_59 (not .loc.20))) (let ((.def_65 (not .loc.21))) (let ((.def_69 (<= D_17 .y.10))) (let ((.def_72 (= E_17 .y.15))) (let ((.def_75 (= F_17 .y.17))) (let ((.def_93 (and .loc.11 .loc.12))) (let ((.def_102 (= .y.16 0))) (let ((.def_104 (= D_17 .y.18))) (let ((.def_109 (and .def_47 .def_52))) (let ((.def_121 (= (+ .y.10 (* (- 1) .y.16)) (- 1)))) (let ((.def_125 (= (+ E_17 (+ .y.10 (* (- 1) G_17))) 0))) (let ((.def_127 (not .def_69))) (let ((.def_142 (not .loc.23))) (let ((.def_148 (and .loc.11 .def_109))) (let ((.def_149 (and .loc.12 .def_148))) (let ((.def_179 (and .loc.12 .def_109))) (or (or (or (or (or (or (or (or (or (or (or (or (or (or (and (and .def_28 .loc.23) (or (or (and (and .def_23 (and .loc.14 .def_21)) (or (or (and (and (and .loc.11 (and (not .def_35) .def_53)) .loc.21) .def_59) (and (= D_17 .y.19) (and (and (and (and (= .y.18 0) (and .def_20 (and .loc.20 .def_65))) .def_69) .def_72) .def_75))) (and (= A_18 .y.19) (and (= (+ D_17 (* (- 1) .y.18)) (- 1)) (and .def_75 (and .def_72 (and .def_65 (and .loc.20 (and .loc.11 (and .def_35 .def_53)))))))))) (and (and (and .def_25 (and .def_75 (and .def_72 (and .def_69 (and .def_65 (and .def_59 (and .loc.13 .def_93))))))) .def_102) .def_104)) (and (and (and (and (= .y.17 (store F_17 G_17 49)) (and .def_104 (and .def_72 (and .def_20 (and .def_65 (and .def_59 (and .def_23 (and .def_21 (and .loc.14 .def_109))))))))) .def_121) .def_125) .def_127))) (and (and .def_104 (and .def_102 (and .def_25 (and .def_75 (and .def_72 (and .def_69 (and .def_20 (and .loc.22 (and .loc.21 (and .loc.20 (and .loc.12 .loc.13))))))))))) .def_142)) (and (= .y.17 (store F_17 G_17 48)) (and .def_142 (and .def_127 (and .def_125 (and .def_121 (and .def_104 (and .def_25 (and .def_72 (and .loc.22 (and .loc.21 (and .loc.20 (and .loc.13 .def_149))))))))))))) (and .def_142 (and .def_104 (and .def_102 (and .def_25 (and .def_75 (and .def_72 (and .def_69 (and .def_59 (and .loc.22 (and .loc.21 (and .def_21 (and .loc.11 .loc.13))))))))))))) (and (= .y.17 (store F_17 G_17 47)) (and .def_142 (and .def_127 (and .def_125 (and .def_121 (and .def_104 (and .def_25 (and .def_72 (and .def_20 (and .def_59 (and .loc.22 (and .loc.21 (and .loc.13 .def_179)))))))))))))) (and .def_142 (and .def_104 (and .def_102 (and .def_25 (and .def_75 (and .def_72 (and .def_69 (and .def_20 (and .def_65 (and .loc.22 (and .loc.20 (and .loc.13 .def_21))))))))))))) (and (= .y.17 (store F_17 G_17 46)) (and .def_142 (and .def_127 (and .def_125 (and .def_121 (and .def_104 (and .def_25 (and .def_72 (and .def_65 (and .loc.22 (and .loc.20 (and .def_21 (and .loc.13 .def_148)))))))))))))) (and .def_142 (and .def_104 (and .def_102 (and .def_25 (and .def_75 (and .def_72 (and .def_69 (and .def_65 (and .def_59 (and .loc.22 (and .def_23 .def_93)))))))))))) (and (= .y.17 (store F_17 G_17 45)) (and .def_142 (and .def_127 (and .def_125 (and .def_121 (and .def_104 (and .def_25 (and .def_72 (and .def_20 (and .def_65 (and .def_59 (and .loc.22 (and .def_21 (and .loc.13 .def_109))))))))))))))) (and .def_142 (and .def_104 (and .def_102 (and .def_25 (and .def_75 (and .def_72 (and .def_69 (and .def_20 (and .def_28 (and .loc.21 (and .loc.20 (and .loc.12 .def_23))))))))))))) (and (= .y.17 (store F_17 G_17 44)) (and .def_142 (and .def_127 (and .def_125 (and .def_121 (and .def_104 (and .def_25 (and .def_72 (and .def_28 (and .loc.21 (and .loc.20 (and .def_23 .def_149))))))))))))) (and .def_142 (and .def_104 (and .def_102 (and .def_25 (and .def_75 (and .def_72 (and .def_69 (and .def_28 (and .def_59 (and .loc.21 (and .def_23 (and .loc.11 .def_21))))))))))))) (and (= .y.17 (store F_17 G_17 43)) (and .def_142 (and .def_127 (and .def_125 (and .def_121 (and .def_104 (and .def_25 (and .def_72 (and .def_20 (and .def_28 (and .def_59 (and .loc.21 (and .def_23 .def_179)))))))))))))) (and (not (<= .y.15 0)) (and (not (<= .y.18 0)) (and .def_142 (and .def_102 (and .def_25 (and .def_20 (and .def_65 (and .def_28 (and .loc.20 (and .def_21 .def_23))))))))))) (and (= .y.17 (store F_17 G_17 42)) (and .def_142 (and .def_127 (and .def_125 (and .def_121 (and .def_104 (and .def_25 (and .def_72 (and .def_65 (and .def_28 (and .loc.20 (and .def_23 (and .def_21 .def_148))))))))))))))))))))))))))))))))))))))))) (state |.y.15| |.y.16| |.y.17| |.y.18| |.y.19| |.loc.20| |.loc.21| |.loc.22| |.loc.23| |.xtv.1|))))
(assert (forall ((|E_17| Int) (|.y.10| Int) (|F_17| (Array Int Int)) (|D_17| Int) (|A_18| Int) (|.loc.11| Bool) (|.loc.12| Bool) (|.loc.13| Bool) (|.loc.14| Bool) (|G_17| Int) (|.loc.22| Bool) (|.loc.23| Bool) (|.loc.21| Bool) (|.loc.20| Bool) (|.y.19| Int) (|.y.18| Int) (|.y.15| Int) (|.y.17| (Array Int Int)) (|.y.16| Int) (|.xtv.1| Int)) (=> (state |E_17| |.y.10| |F_17| |D_17| |A_18| |.loc.11| |.loc.12| |.loc.13| |.loc.14| |G_17|) (not (and .loc.14 (and (not .loc.13) (and .loc.12 (not .loc.11))))))))
(check-sat)
